90 4005
1 2 201
1 3 227
1 4 106
1 5 1
1 6 75
1 7 185
1 8 26
1 9 161
1 10 236
1 11 110
1 12 264
1 13 130
1 14 204
1 15 31
1 16 125
1 17 15
1 18 114
1 19 197
1 20 132
1 21 62
1 22 80
1 23 194
1 24 127
1 25 147
1 26 85
1 27 124
1 28 43
1 29 57
1 30 26
1 31 119
1 32 234
1 33 218
1 34 63
1 35 266
1 36 129
1 37 82
1 38 41
1 39 123
1 40 24
1 41 42
1 42 36
1 43 75
1 44 33
1 45 68
1 46 197
1 47 125
1 48 251
1 49 70
1 50 129
1 51 9
1 52 124
1 53 101
1 54 42
1 55 40
1 56 77
1 57 73
1 58 193
1 59 153
1 60 149
1 61 234
1 62 68
1 63 157
1 64 142
1 65 3
1 66 161
1 67 36
1 68 233
1 69 60
1 70 206
1 71 250
1 72 186
1 73 121
1 74 198
1 75 111
1 76 55
1 77 92
1 78 213
1 79 63
1 80 172
1 81 257
1 82 145
1 83 91
1 84 7
1 85 228
1 86 216
1 87 77
1 88 39
1 89 120
1 90 234
2 3 76
2 4 172
2 5 120
2 6 204
2 7 238
2 8 151
2 9 176
2 10 219
2 11 37
2 12 107
2 13 126
2 14 51
2 15 261
2 16 57
2 17 99
2 18 120
2 19 87
2 20 45
2 21 144
2 22 35
2 23 237
2 24 258
2 25 20
2 26 125
2 27 29
2 28 185
2 29 102
2 30 190
2 31 99
2 32 18
2 33 97
2 34 214
2 35 88
2 36 160
2 37 246
2 38 144
2 39 104
2 40 89
2 41 184
2 42 173
2 43 165
2 44 201
2 45 129
2 46 108
2 47 25
2 48 165
2 49 68
2 50 226
2 51 194
2 52 268
2 53 47
2 54 14
2 55 94
2 56 242
2 57 258
2 58 64
2 59 236
2 60 267
2 61 86
2 62 170
2 63 9
2 64 149
2 65 254
2 66 191
2 67 186
2 68 24
2 69 194
2 70 219
2 71 34
2 72 99
2 73 62
2 74 36
2 75 191
2 76 176
2 77 127
2 78 26
2 79 214
2 80 225
2 81 38
2 82 58
2 83 24
2 84 220
2 85 29
2 86 258
2 87 139
2 88 234
2 89 186
2 90 104
3 4 149
3 5 67
3 6 180
3 7 159
3 8 102
3 9 21
3 10 262
3 11 264
3 12 181
3 13 233
3 14 23
3 15 187
3 16 52
3 17 60
3 18 34
3 19 47
3 20 150
3 21 256
3 22 174
3 23 78
3 24 125
3 25 152
3 26 168
3 27 234
3 28 198
3 29 110
3 30 5
3 31 267
3 32 1
3 33 263
3 34 96
3 35 197
3 36 126
3 37 125
3 38 191
3 39 133
3 40 3
3 41 167
3 42 194
3 43 250
3 44 42
3 45 209
3 46 50
3 47 100
3 48 172
3 49 99
3 50 210
3 51 133
3 52 84
3 53 60
3 54 261
3 55 6
3 56 183
3 57 23
3 58 35
3 59 130
3 60 244
3 61 54
3 62 23
3 63 227
3 64 113
3 65 186
3 66 26
3 67 155
3 68 105
3 69 192
3 70 202
3 71 236
3 72 19
3 73 171
3 74 235
3 75 54
3 76 39
3 77 176
3 78 74
3 79 252
3 80 14
3 81 215
3 82 81
3 83 177
3 84 214
3 85 39
3 86 175
3 87 70
3 88 148
3 89 255
3 90 235
4 5 65
4 6 189
4 7 57
4 8 63
4 9 159
4 10 218
4 11 230
4 12 215
4 13 4
4 14 75
4 15 34
4 16 145
4 17 174
4 18 224
4 19 38
4 20 184
4 21 252
4 22 163
4 23 218
4 24 49
4 25 70
4 26 235
4 27 244
4 28 72
4 29 136
4 30 125
4 31 94
4 32 116
4 33 252
4 34 16
4 35 213
4 36 221
4 37 233
4 38 267
4 39 200
4 40 86
4 41 55
4 42 205
4 43 61
4 44 62
4 45 74
4 46 20
4 47 253
4 48 85
4 49 65
4 50 259
4 51 142
4 52 108
4 53 97
4 54 235
4 55 130
4 56 264
4 57 109
4 58 173
4 59 139
4 60 144
4 61 44
4 62 82
4 63 261
4 64 92
4 65 69
4 66 49
4 67 143
4 68 16
4 69 224
4 70 21
4 71 90
4 72 31
4 73 66
4 74 44
4 75 248
4 76 161
4 77 191
4 78 197
4 79 154
4 80 129
4 81 124
4 82 146
4 83 128
4 84 30
4 85 245
4 86 71
4 87 25
4 88 110
4 89 61
4 90 245
5 6 265
5 7 180
5 8 113
5 9 131
5 10 156
5 11 140
5 12 193
5 13 192
5 14 167
5 15 82
5 16 76
5 17 262
5 18 137
5 19 168
5 20 267
5 21 123
5 22 49
5 23 238
5 24 168
5 25 41
5 26 119
5 27 253
5 28 235
5 29 28
5 30 97
5 31 14
5 32 46
5 33 166
5 34 131
5 35 35
5 36 83
5 37 68
5 38 127
5 39 6
5 40 176
5 41 265
5 42 58
5 43 164
5 44 100
5 45 185
5 46 217
5 47 226
5 48 80
5 49 6
5 50 269
5 51 226
5 52 96
5 53 228
5 54 261
5 55 159
5 56 67
5 57 27
5 58 247
5 59 221
5 60 204
5 61 114
5 62 254
5 63 220
5 64 126
5 65 236
5 66 139
5 67 38
5 68 229
5 69 118
5 70 192
5 71 191
5 72 222
5 73 49
5 74 249
5 75 60
5 76 5
5 77 149
5 78 24
5 79 39
5 80 112
5 81 111
5 82 174
5 83 197
5 84 1
5 85 180
5 86 67
5 87 5
5 88 99
5 89 82
5 90 170
6 7 18
6 8 28
6 9 192
6 10 138
6 11 213
6 12 129
6 13 228
6 14 119
6 15 7
6 16 154
6 17 74
6 18 73
6 19 154
6 20 133
6 21 48
6 22 268
6 23 53
6 24 218
6 25 111
6 26 26
6 27 77
6 28 209
6 29 184
6 30 211
6 31 9
6 32 95
6 33 138
6 34 183
6 35 224
6 36 70
6 37 135
6 38 89
6 39 146
6 40 165
6 41 202
6 42 233
6 43 212
6 44 213
6 45 113
6 46 18
6 47 61
6 48 147
6 49 219
6 50 145
6 51 8
6 52 60
6 53 236
6 54 217
6 55 70
6 56 252
6 57 237
6 58 36
6 59 24
6 60 87
6 61 21
6 62 258
6 63 208
6 64 143
6 65 224
6 66 18
6 67 154
6 68 131
6 69 173
6 70 163
6 71 125
6 72 20
6 73 183
6 74 241
6 75 128
6 76 176
6 77 202
6 78 177
6 79 18
6 80 242
6 81 103
6 82 217
6 83 154
6 84 99
6 85 200
6 86 51
6 87 121
6 88 167
6 89 106
6 90 38
7 8 154
7 9 266
7 10 128
7 11 73
7 12 188
7 13 141
7 14 76
7 15 135
7 16 147
7 17 135
7 18 48
7 19 41
7 20 25
7 21 72
7 22 115
7 23 122
7 24 114
7 25 47
7 26 77
7 27 29
7 28 9
7 29 215
7 30 184
7 31 7
7 32 23
7 33 77
7 34 32
7 35 247
7 36 172
7 37 180
7 38 99
7 39 28
7 40 10
7 41 13
7 42 175
7 43 210
7 44 53
7 45 158
7 46 185
7 47 25
7 48 195
7 49 52
7 50 30
7 51 138
7 52 30
7 53 240
7 54 110
7 55 183
7 56 29
7 57 91
7 58 233
7 59 64
7 60 13
7 61 153
7 62 195
7 63 204
7 64 110
7 65 68
7 66 224
7 67 200
7 68 130
7 69 133
7 70 202
7 71 82
7 72 36
7 73 240
7 74 126
7 75 203
7 76 253
7 77 94
7 78 166
7 79 180
7 80 8
7 81 205
7 82 237
7 83 151
7 84 213
7 85 45
7 86 167
7 87 266
7 88 251
7 89 205
7 90 121
8 9 255
8 10 96
8 11 45
8 12 220
8 13 129
8 14 130
8 15 100
8 16 164
8 17 28
8 18 151
8 19 130
8 20 255
8 21 123
8 22 131
8 23 49
8 24 155
8 25 46
8 26 128
8 27 82
8 28 103
8 29 207
8 30 63
8 31 256
8 32 57
8 33 18
8 34 180
8 35 234
8 36 206
8 37 162
8 38 218
8 39 166
8 40 147
8 41 119
8 42 108
8 43 29
8 44 119
8 45 2
8 46 181
8 47 226
8 48 168
8 49 151
8 50 140
8 51 108
8 52 153
8 53 45
8 54 134
8 55 240
8 56 174
8 57 194
8 58 102
8 59 6
8 60 57
8 61 75
8 62 200
8 63 61
8 64 63
8 65 54
8 66 228
8 67 240
8 68 190
8 69 132
8 70 131
8 71 248
8 72 138
8 73 18
8 74 217
8 75 106
8 76 159
8 77 266
8 78 189
8 79 143
8 80 254
8 81 6
8 82 231
8 83 87
8 84 87
8 85 156
8 86 234
8 87 8
8 88 144
8 89 193
8 90 79
9 10 13
9 11 92
9 12 103
9 13 40
9 14 193
9 15 29
9 16 207
9 17 269
9 18 1
9 19 107
9 20 77
9 21 17
9 22 63
9 23 112
9 24 180
9 25 77
9 26 77
9 27 192
9 28 63
9 29 43
9 30 203
9 31 173
9 32 16
9 33 207
9 34 48
9 35 111
9 36 230
9 37 235
9 38 153
9 39 139
9 40 146
9 41 215
9 42 6
9 43 140
9 44 69
9 45 27
9 46 78
9 47 66
9 48 201
9 49 81
9 50 79
9 51 70
9 52 135
9 53 94
9 54 113
9 55 86
9 56 228
9 57 235
9 58 121
9 59 160
9 60 173
9 61 13
9 62 237
9 63 35
9 64 70
9 65 251
9 66 95
9 67 48
9 68 62
9 69 82
9 70 117
9 71 212
9 72 6
9 73 9
9 74 259
9 75 203
9 76 163
9 77 63
9 78 239
9 79 181
9 80 232
9 81 53
9 82 136
9 83 161
9 84 192
9 85 269
9 86 13
9 87 193
9 88 199
9 89 174
9 90 201
10 11 126
10 12 260
10 13 26
10 14 28
10 15 50
10 16 260
10 17 239
10 18 17
10 19 126
10 20 125
10 21 202
10 22 167
10 23 115
10 24 120
10 25 124
10 26 204
10 27 134
10 28 9
10 29 61
10 30 46
10 31 248
10 32 232
10 33 164
10 34 139
10 35 30
10 36 182
10 37 65
10 38 127
10 39 20
10 40 80
10 41 8
10 42 35
10 43 224
10 44 30
10 45 52
10 46 202
10 47 90
10 48 5
10 49 67
10 50 188
10 51 234
10 52 17
10 53 157
10 54 70
10 55 177
10 56 39
10 57 149
10 58 262
10 59 69
10 60 185
10 61 183
10 62 184
10 63 123
10 64 133
10 65 68
10 66 100
10 67 30
10 68 35
10 69 32
10 70 173
10 71 252
10 72 139
10 73 142
10 74 234
10 75 141
10 76 162
10 77 48
10 78 176
10 79 260
10 80 159
10 81 196
10 82 45
10 83 227
10 84 116
10 85 18
10 86 147
10 87 61
10 88 220
10 89 95
10 90 27
11 12 185
11 13 169
11 14 198
11 15 197
11 16 174
11 17 133
11 18 77
11 19 122
11 20 156
11 21 218
11 22 239
11 23 154
11 24 90
11 25 247
11 26 239
11 27 258
11 28 74
11 29 100
11 30 206
11 31 3
11 32 3
11 33 87
11 34 166
11 35 70
11 36 20
11 37 85
11 38 44
11 39 252
11 40 202
11 41 243
11 42 215
11 43 165
11 44 85
11 45 1
11 46 89
11 47 138
11 48 80
11 49 266
11 50 122
11 51 99
11 52 239
11 53 76
11 54 212
11 55 31
11 56 251
11 57 193
11 58 20
11 59 53
11 60 158
11 61 221
11 62 134
11 63 4
11 64 188
11 65 163
11 66 84
11 67 108
11 68 6
11 69 200
11 70 126
11 71 248
11 72 258
11 73 28
11 74 230
11 75 26
11 76 187
11 77 241
11 78 22
11 79 196
11 80 238
11 81 43
11 82 103
11 83 106
11 84 216
11 85 27
11 86 20
11 87 157
11 88 28
11 89 0
11 90 256
12 13 176
12 14 92
12 15 149
12 16 151
12 17 27
12 18 265
12 19 158
12 20 5
12 21 47
12 22 125
12 23 77
12 24 134
12 25 197
12 26 133
12 27 262
12 28 34
12 29 205
12 30 207
12 31 19
12 32 16
12 33 68
12 34 71
12 35 65
12 36 226
12 37 232
12 38 11
12 39 257
12 40 229
12 41 199
12 42 208
12 43 196
12 44 254
12 45 33
12 46 70
12 47 190
12 48 189
12 49 186
12 50 164
12 51 81
12 52 1
12 53 184
12 54 197
12 55 80
12 56 222
12 57 215
12 58 116
12 59 225
12 60 109
12 61 121
12 62 252
12 63 158
12 64 19
12 65 29
12 66 98
12 67 246
12 68 27
12 69 265
12 70 223
12 71 261
12 72 89
12 73 231
12 74 43
12 75 105
12 76 77
12 77 130
12 78 212
12 79 264
12 80 5
12 81 38
12 82 169
12 83 78
12 84 228
12 85 264
12 86 196
12 87 235
12 88 23
12 89 173
12 90 36
13 14 247
13 15 67
13 16 109
13 17 11
13 18 170
13 19 71
13 20 38
13 21 251
13 22 3
13 23 78
13 24 192
13 25 12
13 26 182
13 27 33
13 28 14
13 29 45
13 30 58
13 31 46
13 32 232
13 33 128
13 34 173
13 35 156
13 36 117
13 37 37
13 38 122
13 39 2
13 40 171
13 41 115
13 42 77
13 43 268
13 44 176
13 45 144
13 46 147
13 47 243
13 48 69
13 49 208
13 50 198
13 51 77
13 52 28
13 53 73
13 54 3
13 55 53
13 56 79
13 57 213
13 58 249
13 59 91
13 60 170
13 61 123
13 62 218
13 63 171
13 64 166
13 65 95
13 66 184
13 67 39
13 68 150
13 69 262
13 70 116
13 71 141
13 72 147
13 73 48
13 74 268
13 75 167
13 76 227
13 77 124
13 78 143
13 79 20
13 80 54
13 81 106
13 82 147
13 83 25
13 84 163
13 85 154
13 86 218
13 87 25
13 88 108
13 89 253
13 90 257
14 15 160
14 16 81
14 17 0
14 18 68
14 19 98
14 20 3
14 21 101
14 22 36
14 23 253
14 24 231
14 25 30
14 26 176
14 27 135
14 28 203
14 29 158
14 30 255
14 31 137
14 32 5
14 33 249
14 34 87
14 35 61
14 36 200
14 37 174
14 38 114
14 39 262
14 40 15
14 41 76
14 42 202
14 43 250
14 44 264
14 45 54
14 46 40
14 47 2
14 48 248
14 49 207
14 50 134
14 51 212
14 52 229
14 53 124
14 54 210
14 55 218
14 56 25
14 57 204
14 58 198
14 59 115
14 60 133
14 61 177
14 62 20
14 63 228
14 64 161
14 65 187
14 66 193
14 67 259
14 68 130
14 69 10
14 70 66
14 71 94
14 72 126
14 73 166
14 74 245
14 75 86
14 76 253
14 77 103
14 78 117
14 79 99
14 80 257
14 81 77
14 82 49
14 83 100
14 84 216
14 85 265
14 86 137
14 87 128
14 88 123
14 89 154
14 90 85
15 16 194
15 17 233
15 18 111
15 19 42
15 20 109
15 21 44
15 22 63
15 23 155
15 24 136
15 25 109
15 26 146
15 27 149
15 28 227
15 29 188
15 30 76
15 31 119
15 32 107
15 33 256
15 34 49
15 35 32
15 36 16
15 37 69
15 38 162
15 39 215
15 40 186
15 41 233
15 42 128
15 43 17
15 44 31
15 45 52
15 46 192
15 47 131
15 48 224
15 49 133
15 50 137
15 51 238
15 52 182
15 53 177
15 54 247
15 55 147
15 56 129
15 57 171
15 58 10
15 59 240
15 60 32
15 61 252
15 62 247
15 63 261
15 64 23
15 65 101
15 66 86
15 67 3
15 68 212
15 69 71
15 70 185
15 71 145
15 72 111
15 73 256
15 74 257
15 75 83
15 76 259
15 77 172
15 78 131
15 79 45
15 80 72
15 81 179
15 82 173
15 83 174
15 84 155
15 85 251
15 86 216
15 87 7
15 88 240
15 89 124
15 90 262
16 17 243
16 18 175
16 19 3
16 20 131
16 21 76
16 22 110
16 23 69
16 24 59
16 25 224
16 26 138
16 27 122
16 28 0
16 29 97
16 30 53
16 31 227
16 32 92
16 33 208
16 34 240
16 35 262
16 36 6
16 37 178
16 38 154
16 39 160
16 40 257
16 41 13
16 42 1
16 43 203
16 44 264
16 45 69
16 46 219
16 47 269
16 48 21
16 49 70
16 50 58
16 51 212
16 52 267
16 53 210
16 54 142
16 55 212
16 56 225
16 57 120
16 58 79
16 59 221
16 60 242
16 61 68
16 62 27
16 63 96
16 64 16
16 65 157
16 66 247
16 67 132
16 68 133
16 69 231
16 70 164
16 71 118
16 72 7
16 73 192
16 74 182
16 75 116
16 76 69
16 77 210
16 78 223
16 79 117
16 80 204
16 81 226
16 82 227
16 83 199
16 84 228
16 85 261
16 86 168
16 87 109
16 88 199
16 89 256
16 90 262
17 18 138
17 19 125
17 20 73
17 21 18
17 22 110
17 23 257
17 24 75
17 25 198
17 26 157
17 27 154
17 28 216
17 29 50
17 30 140
17 31 232
17 32 248
17 33 258
17 34 148
17 35 238
17 36 110
17 37 214
17 38 218
17 39 62
17 40 42
17 41 161
17 42 89
17 43 205
17 44 56
17 45 233
17 46 33
17 47 52
17 48 33
17 49 36
17 50 175
17 51 11
17 52 50
17 53 264
17 54 93
17 55 139
17 56 19
17 57 215
17 58 195
17 59 82
17 60 96
17 61 191
17 62 269
17 63 93
17 64 246
17 65 232
17 66 268
17 67 228
17 68 168
17 69 190
17 70 2
17 71 149
17 72 181
17 73 150
17 74 136
17 75 231
17 76 224
17 77 212
17 78 144
17 79 86
17 80 117
17 81 184
17 82 55
17 83 68
17 84 6
17 85 142
17 86 223
17 87 129
17 88 122
17 89 221
17 90 18
18 19 195
18 20 228
18 21 42
18 22 262
18 23 256
18 24 2
18 25 0
18 26 107
18 27 87
18 28 112
18 29 131
18 30 145
18 31 150
18 32 68
18 33 210
18 34 126
18 35 148
18 36 22
18 37 140
18 38 41
18 39 208
18 40 73
18 41 0
18 42 6
18 43 170
18 44 98
18 45 238
18 46 167
18 47 127
18 48 214
18 49 7
18 50 207
18 51 265
18 52 33
18 53 205
18 54 28
18 55 142
18 56 159
18 57 168
18 58 98
18 59 139
18 60 53
18 61 77
18 62 213
18 63 232
18 64 245
18 65 39
18 66 113
18 67 44
18 68 50
18 69 4
18 70 45
18 71 125
18 72 174
18 73 84
18 74 10
18 75 203
18 76 190
18 77 129
18 78 104
18 79 104
18 80 181
18 81 105
18 82 27
18 83 111
18 84 68
18 85 155
18 86 46
18 87 79
18 88 135
18 89 82
18 90 91
19 20 82
19 21 125
19 22 130
19 23 74
19 24 161
19 25 53
19 26 11
19 27 129
19 28 223
19 29 238
19 30 174
19 31 8
19 32 27
19 33 154
19 34 152
19 35 144
19 36 136
19 37 95
19 38 165
19 39 114
19 40 181
19 41 113
19 42 34
19 43 261
19 44 257
19 45 212
19 46 138
19 47 243
19 48 255
19 49 170
19 50 100
19 51 67
19 52 133
19 53 51
19 54 33
19 55 196
19 56 46
19 57 147
19 58 86
19 59 76
19 60 178
19 61 42
19 62 160
19 63 240
19 64 216
19 65 206
19 66 62
19 67 53
19 68 205
19 69 38
19 70 159
19 71 19
19 72 267
19 73 146
19 74 243
19 75 218
19 76 159
19 77 244
19 78 120
19 79 48
19 80 209
19 81 36
19 82 238
19 83 4
19 84 242
19 85 233
19 86 167
19 87 34
19 88 7
19 89 152
19 90 141
20 21 40
20 22 152
20 23 261
20 24 179
20 25 222
20 26 144
20 27 45
20 28 233
20 29 16
20 30 4
20 31 72
20 32 149
20 33 237
20 34 6
20 35 239
20 36 245
20 37 100
20 38 248
20 39 58
20 40 229
20 41 125
20 42 27
20 43 205
20 44 262
20 45 212
20 46 117
20 47 66
20 48 84
20 49 222
20 50 267
20 51 166
20 52 126
20 53 167
20 54 82
20 55 151
20 56 183
20 57 33
20 58 204
20 59 163
20 60 175
20 61 261
20 62 256
20 63 22
20 64 217
20 65 243
20 66 176
20 67 3
20 68 17
20 69 201
20 70 120
20 71 21
20 72 85
20 73 128
20 74 225
20 75 172
20 76 229
20 77 140
20 78 224
20 79 175
20 80 153
20 81 101
20 82 54
20 83 112
20 84 246
20 85 187
20 86 51
20 87 164
20 88 185
20 89 220
20 90 189
21 22 60
21 23 221
21 24 114
21 25 71
21 26 137
21 27 142
21 28 24
21 29 199
21 30 118
21 31 230
21 32 65
21 33 146
21 34 204
21 35 98
21 36 97
21 37 46
21 38 196
21 39 189
21 40 107
21 41 205
21 42 87
21 43 28
21 44 179
21 45 30
21 46 30
21 47 228
21 48 219
21 49 7
21 50 267
21 51 89
21 52 34
21 53 121
21 54 89
21 55 198
21 56 261
21 57 104
21 58 33
21 59 219
21 60 152
21 61 106
21 62 50
21 63 33
21 64 122
21 65 31
21 66 66
21 67 79
21 68 243
21 69 243
21 70 235
21 71 256
21 72 238
21 73 206
21 74 265
21 75 243
21 76 91
21 77 174
21 78 127
21 79 32
21 80 257
21 81 79
21 82 95
21 83 159
21 84 224
21 85 145
21 86 266
21 87 190
21 88 196
21 89 246
21 90 17
22 23 215
22 24 266
22 25 69
22 26 196
22 27 250
22 28 184
22 29 70
22 30 8
22 31 244
22 32 75
22 33 158
22 34 222
22 35 227
22 36 46
22 37 147
22 38 105
22 39 59
22 40 44
22 41 175
22 42 144
22 43 223
22 44 232
22 45 79
22 46 187
22 47 128
22 48 70
22 49 234
22 50 220
22 51 221
22 52 168
22 53 65
22 54 24
22 55 36
22 56 48
22 57 164
22 58 222
22 59 110
22 60 151
22 61 129
22 62 148
22 63 128
22 64 11
22 65 258
22 66 73
22 67 74
22 68 177
22 69 81
22 70 94
22 71 28
22 72 221
22 73 135
22 74 55
22 75 53
22 76 38
22 77 245
22 78 231
22 79 237
22 80 4
22 81 48
22 82 26
22 83 256
22 84 128
22 85 104
22 86 236
22 87 264
22 88 120
22 89 6
22 90 255
23 24 106
23 25 204
23 26 254
23 27 141
23 28 236
23 29 204
23 30 77
23 31 130
23 32 231
23 33 96
23 34 171
23 35 109
23 36 127
23 37 36
23 38 132
23 39 63
23 40 34
23 41 123
23 42 224
23 43 204
23 44 102
23 45 143
23 46 3
23 47 160
23 48 95
23 49 81
23 50 143
23 51 190
23 52 103
23 53 111
23 54 89
23 55 54
23 56 1
23 57 29
23 58 261
23 59 59
23 60 189
23 61 228
23 62 148
23 63 167
23 64 114
23 65 172
23 66 194
23 67 99
23 68 128
23 69 252
23 70 192
23 71 73
23 72 18
23 73 50
23 74 118
23 75 160
23 76 85
23 77 122
23 78 187
23 79 12
23 80 245
23 81 113
23 82 21
23 83 228
23 84 8
23 85 75
23 86 115
23 87 59
23 88 137
23 89 137
23 90 191
24 25 26
24 26 168
24 27 133
24 28 259
24 29 30
24 30 21
24 31 195
24 32 34
24 33 147
24 34 37
24 35 256
24 36 120
24 37 161
24 38 229
24 39 54
24 40 261
24 41 106
24 42 105
24 43 174
24 44 124
24 45 56
24 46 48
24 47 141
24 48 32
24 49 158
24 50 113
24 51 70
24 52 247
24 53 81
24 54 31
24 55 180
24 56 179
24 57 85
24 58 138
24 59 36
24 60 116
24 61 244
24 62 90
24 63 137
24 64 250
24 65 98
24 66 41
24 67 111
24 68 167
24 69 98
24 70 241
24 71 113
24 72 102
24 73 230
24 74 111
24 75 47
24 76 18
24 77 140
24 78 115
24 79 242
24 80 158
24 81 251
24 82 265
24 83 39
24 84 126
24 85 181
24 86 156
24 87 187
24 88 147
24 89 107
24 90 155
25 26 139
25 27 210
25 28 233
25 29 41
25 30 2
25 31 140
25 32 237
25 33 230
25 34 14
25 35 268
25 36 134
25 37 48
25 38 59
25 39 256
25 40 246
25 41 253
25 42 72
25 43 39
25 44 192
25 45 43
25 46 88
25 47 160
25 48 58
25 49 52
25 50 31
25 51 255
25 52 35
25 53 266
25 54 6
25 55 266
25 56 107
25 57 90
25 58 263
25 59 153
25 60 238
25 61 211
25 62 31
25 63 141
25 64 120
25 65 147
25 66 8
25 67 213
25 68 171
25 69 266
25 70 82
25 71 212
25 72 197
25 73 38
25 74 23
25 75 153
25 76 117
25 77 258
25 78 71
25 79 238
25 80 52
25 81 142
25 82 25
25 83 89
25 84 104
25 85 246
25 86 197
25 87 154
25 88 262
25 89 49
25 90 60
26 27 177
26 28 230
26 29 207
26 30 239
26 31 15
26 32 11
26 33 154
26 34 30
26 35 55
26 36 168
26 37 256
26 38 141
26 39 236
26 40 92
26 41 105
26 42 181
26 43 71
26 44 209
26 45 42
26 46 185
26 47 118
26 48 70
26 49 182
26 50 233
26 51 20
26 52 190
26 53 176
26 54 144
26 55 67
26 56 183
26 57 21
26 58 184
26 59 83
26 60 156
26 61 52
26 62 77
26 63 259
26 64 137
26 65 8
26 66 49
26 67 99
26 68 24
26 69 265
26 70 6
26 71 240
26 72 242
26 73 8
26 74 198
26 75 215
26 76 87
26 77 181
26 78 194
26 79 208
26 80 183
26 81 222
26 82 12
26 83 99
26 84 241
26 85 155
26 86 259
26 87 119
26 88 72
26 89 1
26 90 110
27 28 43
27 29 22
27 30 143
27 31 266
27 32 12
27 33 92
27 34 139
27 35 198
27 36 241
27 37 34
27 38 178
27 39 167
27 40 84
27 41 178
27 42 122
27 43 194
27 44 91
27 45 220
27 46 99
27 47 240
27 48 204
27 49 132
27 50 197
27 51 62
27 52 104
27 53 80
27 54 229
27 55 15
27 56 232
27 57 23
27 58 176
27 59 83
27 60 6
27 61 9
27 62 67
27 63 8
27 64 175
27 65 113
27 66 192
27 67 236
27 68 126
27 69 240
27 70 173
27 71 199
27 72 150
27 73 259
27 74 192
27 75 233
27 76 230
27 77 216
27 78 122
27 79 78
27 80 143
27 81 229
27 82 48
27 83 200
27 84 129
27 85 120
27 86 129
27 87 108
27 88 7
27 89 39
27 90 259
28 29 38
28 30 148
28 31 29
28 32 178
28 33 249
28 34 148
28 35 222
28 36 40
28 37 85
28 38 28
28 39 115
28 40 141
28 41 111
28 42 74
28 43 133
28 44 164
28 45 240
28 46 49
28 47 171
28 48 227
28 49 152
28 50 218
28 51 214
28 52 260
28 53 82
28 54 98
28 55 33
28 56 189
28 57 250
28 58 67
28 59 88
28 60 49
28 61 30
28 62 136
28 63 217
28 64 263
28 65 258
28 66 246
28 67 249
28 68 244
28 69 70
28 70 123
28 71 9
28 72 186
28 73 8
28 74 167
28 75 233
28 76 236
28 77 175
28 78 234
28 79 260
28 80 158
28 81 94
28 82 105
28 83 3
28 84 203
28 85 200
28 86 32
28 87 62
28 88 22
28 89 223
28 90 85
29 30 240
29 31 52
29 32 35
29 33 162
29 34 47
29 35 245
29 36 134
29 37 73
29 38 260
29 39 155
29 40 93
29 41 45
29 42 5
29 43 26
29 44 233
29 45 246
29 46 51
29 47 252
29 48 118
29 49 196
29 50 71
29 51 195
29 52 96
29 53 232
29 54 28
29 55 261
29 56 180
29 57 225
29 58 151
29 59 158
29 60 231
29 61 116
29 62 247
29 63 13
29 64 209
29 65 68
29 66 81
29 67 63
29 68 69
29 69 106
29 70 265
29 71 178
29 72 186
29 73 145
29 74 124
29 75 36
29 76 0
29 77 193
29 78 166
29 79 249
29 80 235
29 81 79
29 82 179
29 83 210
29 84 189
29 85 209
29 86 222
29 87 32
29 88 240
29 89 206
29 90 150
30 31 223
30 32 95
30 33 161
30 34 33
30 35 50
30 36 109
30 37 126
30 38 187
30 39 116
30 40 67
30 41 120
30 42 170
30 43 12
30 44 25
30 45 116
30 46 120
30 47 140
30 48 87
30 49 21
30 50 155
30 51 141
30 52 24
30 53 184
30 54 265
30 55 123
30 56 130
30 57 90
30 58 210
30 59 181
30 60 256
30 61 61
30 62 264
30 63 77
30 64 149
30 65 38
30 66 238
30 67 253
30 68 158
30 69 154
30 70 143
30 71 49
30 72 269
30 73 47
30 74 153
30 75 207
30 76 259
30 77 131
30 78 54
30 79 87
30 80 267
30 81 78
30 82 194
30 83 269
30 84 65
30 85 158
30 86 255
30 87 243
30 88 187
30 89 85
30 90 51
31 32 107
31 33 61
31 34 54
31 35 240
31 36 21
31 37 30
31 38 95
31 39 151
31 40 98
31 41 233
31 42 109
31 43 98
31 44 205
31 45 166
31 46 162
31 47 218
31 48 263
31 49 137
31 50 260
31 51 267
31 52 73
31 53 63
31 54 128
31 55 199
31 56 151
31 57 226
31 58 114
31 59 120
31 60 183
31 61 121
31 62 158
31 63 63
31 64 124
31 65 265
31 66 157
31 67 225
31 68 267
31 69 99
31 70 214
31 71 186
31 72 40
31 73 227
31 74 228
31 75 213
31 76 36
31 77 36
31 78 22
31 79 63
31 80 227
31 81 174
31 82 167
31 83 122
31 84 110
31 85 44
31 86 224
31 87 211
31 88 43
31 89 72
31 90 235
32 33 183
32 34 21
32 35 131
32 36 209
32 37 246
32 38 133
32 39 235
32 40 128
32 41 188
32 42 14
32 43 235
32 44 219
32 45 63
32 46 264
32 47 245
32 48 189
32 49 103
32 50 73
32 51 211
32 52 167
32 53 259
32 54 10
32 55 54
32 56 229
32 57 246
32 58 249
32 59 132
32 60 227
32 61 59
32 62 22
32 63 110
32 64 121
32 65 95
32 66 205
32 67 89
32 68 70
32 69 228
32 70 243
32 71 248
32 72 256
32 73 12
32 74 183
32 75 262
32 76 254
32 77 264
32 78 190
32 79 125
32 80 200
32 81 254
32 82 173
32 83 129
32 84 72
32 85 194
32 86 133
32 87 216
32 88 179
32 89 75
32 90 175
33 34 246
33 35 253
33 36 45
33 37 215
33 38 232
33 39 57
33 40 146
33 41 54
33 42 221
33 43 39
33 44 47
33 45 127
33 46 106
33 47 229
33 48 164
33 49 40
33 50 240
33 51 127
33 52 160
33 53 190
33 54 124
33 55 53
33 56 32
33 57 260
33 58 1
33 59 196
33 60 222
33 61 148
33 62 99
33 63 201
33 64 66
33 65 2
33 66 179
33 67 106
33 68 95
33 69 203
33 70 243
33 71 120
33 72 244
33 73 199
33 74 94
33 75 117
33 76 76
33 77 5
33 78 78
33 79 204
33 80 28
33 81 205
33 82 136
33 83 143
33 84 83
33 85 265
33 86 228
33 87 208
33 88 9
33 89 88
33 90 122
34 35 93
34 36 4
34 37 191
34 38 5
34 39 133
34 40 68
34 41 45
34 42 120
34 43 234
34 44 33
34 45 129
34 46 186
34 47 164
34 48 249
34 49 206
34 50 161
34 51 183
34 52 126
34 53 140
34 54 243
34 55 166
34 56 120
34 57 141
34 58 154
34 59 133
34 60 208
34 61 169
34 62 227
34 63 103
34 64 141
34 65 235
34 66 137
34 67 163
34 68 43
34 69 213
34 70 0
34 71 158
34 72 147
34 73 139
34 74 13
34 75 81
34 76 42
34 77 162
34 78 91
34 79 147
34 80 208
34 81 192
34 82 78
34 83 247
34 84 156
34 85 86
34 86 82
34 87 107
34 88 12
34 89 86
34 90 168
35 36 149
35 37 71
35 38 33
35 39 40
35 40 259
35 41 89
35 42 18
35 43 127
35 44 127
35 45 264
35 46 99
35 47 173
35 48 151
35 49 147
35 50 114
35 51 120
35 52 206
35 53 169
35 54 218
35 55 54
35 56 39
35 57 229
35 58 227
35 59 248
35 60 243
35 61 253
35 62 235
35 63 56
35 64 263
35 65 73
35 66 223
35 67 139
35 68 28
35 69 28
35 70 183
35 71 92
35 72 204
35 73 61
35 74 164
35 75 219
35 76 118
35 77 173
35 78 118
35 79 224
35 80 144
35 81 110
35 82 247
35 83 103
35 84 231
35 85 250
35 86 266
35 87 194
35 88 145
35 89 41
35 90 211
36 37 168
36 38 125
36 39 200
36 40 119
36 41 223
36 42 242
36 43 190
36 44 69
36 45 8
36 46 189
36 47 125
36 48 221
36 49 183
36 50 128
36 51 51
36 52 95
36 53 22
36 54 47
36 55 193
36 56 259
36 57 88
36 58 140
36 59 31
36 60 60
36 61 71
36 62 140
36 63 138
36 64 3
36 65 268
36 66 161
36 67 25
36 68 13
36 69 161
36 70 87
36 71 113
36 72 103
36 73 134
36 74 85
36 75 267
36 76 246
36 77 130
36 78 179
36 79 65
36 80 37
36 81 188
36 82 209
36 83 145
36 84 265
36 85 14
36 86 259
36 87 238
36 88 249
36 89 242
36 90 82
37 38 65
37 39 169
37 40 244
37 41 15
37 42 62
37 43 198
37 44 34
37 45 153
37 46 140
37 47 38
37 48 210
37 49 236
37 50 263
37 51 166
37 52 224
37 53 109
37 54 126
37 55 85
37 56 110
37 57 87
37 58 200
37 59 137
37 60 195
37 61 217
37 62 183
37 63 253
37 64 194
37 65 19
37 66 61
37 67 34
37 68 218
37 69 153
37 70 69
37 71 265
37 72 176
37 73 112
37 74 87
37 75 34
37 76 148
37 77 34
37 78 179
37 79 11
37 80 48
37 81 39
37 82 217
37 83 152
37 84 245
37 85 175
37 86 100
37 87 28
37 88 98
37 89 143
37 90 64
38 39 5
38 40 53
38 41 52
38 42 130
38 43 124
38 44 137
38 45 106
38 46 163
38 47 228
38 48 267
38 49 61
38 50 10
38 51 104
38 52 135
38 53 34
38 54 235
38 55 198
38 56 66
38 57 237
38 58 222
38 59 27
38 60 92
38 61 128
38 62 206
38 63 185
38 64 219
38 65 15
38 66 246
38 67 9
38 68 24
38 69 91
38 70 91
38 71 4
38 72 254
38 73 208
38 74 98
38 75 146
38 76 219
38 77 38
38 78 6
38 79 0
38 80 179
38 81 240
38 82 134
38 83 208
38 84 91
38 85 21
38 86 228
38 87 192
38 88 181
38 89 95
38 90 16
39 40 55
39 41 165
39 42 67
39 43 19
39 44 15
39 45 195
39 46 172
39 47 221
39 48 198
39 49 25
39 50 19
39 51 33
39 52 125
39 53 214
39 54 138
39 55 19
39 56 213
39 57 240
39 58 142
39 59 101
39 60 20
39 61 145
39 62 163
39 63 211
39 64 179
39 65 152
39 66 184
39 67 141
39 68 221
39 69 6
39 70 79
39 71 93
39 72 150
39 73 117
39 74 110
39 75 162
39 76 53
39 77 214
39 78 268
39 79 133
39 80 105
39 81 142
39 82 269
39 83 49
39 84 52
39 85 62
39 86 118
39 87 25
39 88 254
39 89 118
39 90 209
40 41 108
40 42 160
40 43 136
40 44 209
40 45 17
40 46 240
40 47 92
40 48 218
40 49 74
40 50 166
40 51 246
40 52 223
40 53 216
40 54 66
40 55 32
40 56 89
40 57 243
40 58 180
40 59 186
40 60 241
40 61 267
40 62 31
40 63 211
40 64 219
40 65 22
40 66 73
40 67 143
40 68 223
40 69 63
40 70 173
40 71 74
40 72 166
40 73 92
40 74 232
40 75 209
40 76 231
40 77 39
40 78 120
40 79 118
40 80 37
40 81 190
40 82 213
40 83 123
40 84 104
40 85 210
40 86 257
40 87 75
40 88 114
40 89 178
40 90 15
41 42 259
41 43 217
41 44 223
41 45 259
41 46 28
41 47 87
41 48 111
41 49 21
41 50 4
41 51 95
41 52 122
41 53 48
41 54 235
41 55 242
41 56 180
41 57 256
41 58 79
41 59 147
41 60 139
41 61 99
41 62 70
41 63 0
41 64 169
41 65 225
41 66 145
41 67 108
41 68 152
41 69 196
41 70 92
41 71 232
41 72 144
41 73 167
41 74 176
41 75 81
41 76 205
41 77 105
41 78 209
41 79 156
41 80 140
41 81 118
41 82 88
41 83 54
41 84 161
41 85 198
41 86 106
41 87 84
41 88 171
41 89 214
41 90 266
42 43 198
42 44 14
42 45 266
42 46 27
42 47 146
42 48 6
42 49 162
42 50 113
42 51 146
42 52 180
42 53 129
42 54 25
42 55 248
42 56 50
42 57 265
42 58 120
42 59 77
42 60 201
42 61 228
42 62 119
42 63 143
42 64 193
42 65 117
42 66 171
42 67 150
42 68 94
42 69 93
42 70 73
42 71 161
42 72 168
42 73 144
42 74 96
42 75 250
42 76 151
42 77 7
42 78 129
42 79 266
42 80 117
42 81 57
42 82 233
42 83 12
42 84 24
42 85 81
42 86 162
42 87 201
42 88 38
42 89 9
42 90 141
43 44 45
43 45 125
43 46 254
43 47 1
43 48 267
43 49 257
43 50 106
43 51 91
43 52 218
43 53 248
43 54 42
43 55 261
43 56 210
43 57 78
43 58 86
43 59 67
43 60 98
43 61 14
43 62 219
43 63 264
43 64 1
43 65 198
43 66 67
43 67 230
43 68 12
43 69 247
43 70 48
43 71 151
43 72 22
43 73 58
43 74 39
43 75 193
43 76 188
43 77 208
43 78 41
43 79 35
43 80 136
43 81 171
43 82 237
43 83 238
43 84 75
43 85 25
43 86 89
43 87 77
43 88 65
43 89 197
43 90 74
44 45 48
44 46 103
44 47 217
44 48 10
44 49 30
44 50 162
44 51 11
44 52 29
44 53 249
44 54 88
44 55 190
44 56 210
44 57 246
44 58 185
44 59 17
44 60 141
44 61 160
44 62 104
44 63 169
44 64 73
44 65 199
44 66 172
44 67 155
44 68 43
44 69 243
44 70 220
44 71 184
44 72 165
44 73 55
44 74 230
44 75 48
44 76 206
44 77 180
44 78 120
44 79 66
44 80 90
44 81 206
44 82 219
44 83 238
44 84 163
44 85 115
44 86 93
44 87 55
44 88 58
44 89 211
44 90 200
45 46 226
45 47 226
45 48 146
45 49 158
45 50 57
45 51 134
45 52 238
45 53 237
45 54 42
45 55 185
45 56 173
45 57 221
45 58 231
45 59 211
45 60 259
45 61 239
45 62 35
45 63 240
45 64 106
45 65 101
45 66 244
45 67 108
45 68 16
45 69 157
45 70 13
45 71 205
45 72 253
45 73 209
45 74 220
45 75 14
45 76 92
45 77 190
45 78 176
45 79 192
45 80 183
45 81 12
45 82 198
45 83 125
45 84 241
45 85 128
45 86 206
45 87 256
45 88 71
45 89 34
45 90 65
46 47 159
46 48 263
46 49 39
46 50 173
46 51 132
46 52 155
46 53 119
46 54 158
46 55 127
46 56 212
46 57 123
46 58 100
46 59 95
46 60 57
46 61 140
46 62 16
46 63 186
46 64 43
46 65 138
46 66 242
46 67 63
46 68 17
46 69 32
46 70 116
46 71 132
46 72 152
46 73 260
46 74 75
46 75 149
46 76 142
46 77 112
46 78 259
46 79 3
46 80 164
46 81 245
46 82 160
46 83 14
46 84 205
46 85 143
46 86 48
46 87 186
46 88 237
46 89 267
46 90 225
47 48 153
47 49 114
47 50 180
47 51 181
47 52 19
47 53 44
47 54 246
47 55 8
47 56 225
47 57 132
47 58 217
47 59 61
47 60 177
47 61 189
47 62 90
47 63 192
47 64 102
47 65 237
47 66 20
47 67 64
47 68 70
47 69 157
47 70 220
47 71 269
47 72 253
47 73 169
47 74 6
47 75 12
47 76 198
47 77 84
47 78 238
47 79 206
47 80 23
47 81 182
47 82 198
47 83 29
47 84 203
47 85 230
47 86 112
47 87 237
47 88 152
47 89 95
47 90 115
48 49 108
48 50 84
48 51 65
48 52 128
48 53 57
48 54 169
48 55 244
48 56 99
48 57 149
48 58 139
48 59 151
48 60 68
48 61 6
48 62 108
48 63 35
48 64 35
48 65 127
48 66 174
48 67 43
48 68 47
48 69 247
48 70 144
48 71 137
48 72 195
48 73 42
48 74 181
48 75 221
48 76 161
48 77 242
48 78 40
48 79 152
48 80 238
48 81 51
48 82 186
48 83 29
48 84 187
48 85 218
48 86 249
48 87 215
48 88 264
48 89 185
48 90 87
49 50 138
49 51 115
49 52 107
49 53 119
49 54 144
49 55 213
49 56 0
49 57 193
49 58 112
49 59 117
49 60 233
49 61 4
49 62 28
49 63 145
49 64 178
49 65 39
49 66 53
49 67 215
49 68 191
49 69 264
49 70 19
49 71 245
49 72 157
49 73 35
49 74 26
49 75 164
49 76 235
49 77 87
49 78 19
49 79 133
49 80 149
49 81 189
49 82 266
49 83 49
49 84 209
49 85 118
49 86 42
49 87 45
49 88 16
49 89 28
49 90 42
50 51 86
50 52 157
50 53 132
50 54 37
50 55 70
50 56 157
50 57 117
50 58 23
50 59 267
50 60 110
50 61 81
50 62 37
50 63 105
50 64 257
50 65 13
50 66 133
50 67 56
50 68 195
50 69 135
50 70 19
50 71 97
50 72 81
50 73 212
50 74 124
50 75 42
50 76 116
50 77 166
50 78 87
50 79 128
50 80 152
50 81 253
50 82 264
50 83 180
50 84 87
50 85 130
50 86 243
50 87 153
50 88 170
50 89 16
50 90 229
51 52 262
51 53 99
51 54 25
51 55 108
51 56 120
51 57 82
51 58 151
51 59 78
51 60 102
51 61 257
51 62 3
51 63 76
51 64 44
51 65 195
51 66 231
51 67 127
51 68 47
51 69 66
51 70 242
51 71 104
51 72 192
51 73 94
51 74 56
51 75 202
51 76 12
51 77 99
51 78 155
51 79 176
51 80 239
51 81 105
51 82 219
51 83 267
51 84 262
51 85 250
51 86 36
51 87 165
51 88 263
51 89 61
51 90 5
52 53 44
52 54 79
52 55 133
52 56 62
52 57 113
52 58 3
52 59 185
52 60 196
52 61 217
52 62 197
52 63 32
52 64 72
52 65 136
52 66 186
52 67 142
52 68 47
52 69 40
52 70 245
52 71 56
52 72 256
52 73 197
52 74 143
52 75 110
52 76 138
52 77 135
52 78 154
52 79 47
52 80 37
52 81 63
52 82 150
52 83 143
52 84 115
52 85 133
52 86 16
52 87 80
52 88 127
52 89 25
52 90 42
53 54 174
53 55 141
53 56 228
53 57 73
53 58 120
53 59 131
53 60 244
53 61 183
53 62 60
53 63 186
53 64 80
53 65 32
53 66 166
53 67 120
53 68 151
53 69 165
53 70 172
53 71 65
53 72 187
53 73 66
53 74 96
53 75 119
53 76 92
53 77 156
53 78 138
53 79 202
53 80 67
53 81 211
53 82 245
53 83 132
53 84 126
53 85 47
53 86 146
53 87 176
53 88 177
53 89 53
53 90 70
54 55 47
54 56 140
54 57 257
54 58 142
54 59 86
54 60 74
54 61 135
54 62 79
54 63 240
54 64 71
54 65 177
54 66 66
54 67 205
54 68 104
54 69 112
54 70 79
54 71 167
54 72 158
54 73 235
54 74 139
54 75 132
54 76 47
54 77 8
54 78 14
54 79 94
54 80 167
54 81 1
54 82 241
54 83 84
54 84 113
54 85 2
54 86 200
54 87 188
54 88 132
54 89 112
54 90 93
55 56 18
55 57 190
55 58 119
55 59 150
55 60 46
55 61 26
55 62 254
55 63 13
55 64 257
55 65 128
55 66 214
55 67 196
55 68 256
55 69 34
55 70 23
55 71 223
55 72 248
55 73 192
55 74 202
55 75 130
55 76 147
55 77 76
55 78 186
55 79 173
55 80 99
55 81 126
55 82 12
55 83 166
55 84 214
55 85 110
55 86 44
55 87 116
55 88 131
55 89 146
55 90 242
56 57 189
56 58 252
56 59 175
56 60 74
56 61 209
56 62 4
56 63 268
56 64 201
56 65 226
56 66 200
56 67 152
56 68 93
56 69 216
56 70 238
56 71 263
56 72 21
56 73 211
56 74 174
56 75 149
56 76 222
56 77 51
56 78 21
56 79 8
56 80 123
56 81 105
56 82 237
56 83 91
56 84 136
56 85 15
56 86 65
56 87 33
56 88 133
56 89 152
56 90 177
57 58 117
57 59 7
57 60 233
57 61 32
57 62 117
57 63 185
57 64 106
57 65 214
57 66 157
57 67 205
57 68 119
57 69 31
57 70 268
57 71 71
57 72 40
57 73 224
57 74 100
57 75 215
57 76 99
57 77 82
57 78 240
57 79 208
57 80 59
57 81 202
57 82 257
57 83 229
57 84 165
57 85 167
57 86 263
57 87 171
57 88 1
57 89 69
57 90 208
58 59 239
58 60 224
58 61 79
58 62 16
58 63 159
58 64 41
58 65 245
58 66 225
58 67 206
58 68 0
58 69 76
58 70 175
58 71 239
58 72 72
58 73 210
58 74 26
58 75 207
58 76 116
58 77 118
58 78 35
58 79 15
58 80 86
58 81 185
58 82 6
58 83 2
58 84 223
58 85 109
58 86 145
58 87 151
58 88 6
58 89 79
58 90 33
59 60 93
59 61 238
59 62 70
59 63 189
59 64 215
59 65 36
59 66 202
59 67 101
59 68 211
59 69 208
59 70 4
59 71 122
59 72 214
59 73 125
59 74 5
59 75 223
59 76 265
59 77 52
59 78 113
59 79 144
59 80 36
59 81 14
59 82 194
59 83 117
59 84 2
59 85 174
59 86 146
59 87 228
59 88 254
59 89 218
59 90 130
60 61 185
60 62 176
60 63 77
60 64 5
60 65 80
60 66 182
60 67 212
60 68 84
60 69 229
60 70 157
60 71 90
60 72 197
60 73 95
60 74 65
60 75 225
60 76 250
60 77 237
60 78 112
60 79 232
60 80 253
60 81 114
60 82 246
60 83 40
60 84 206
60 85 23
60 86 50
60 87 115
60 88 240
60 89 138
60 90 22
61 62 103
61 63 113
61 64 244
61 65 266
61 66 99
61 67 63
61 68 45
61 69 113
61 70 67
61 71 101
61 72 75
61 73 180
61 74 234
61 75 264
61 76 71
61 77 51
61 78 107
61 79 10
61 80 57
61 81 207
61 82 159
61 83 93
61 84 141
61 85 267
61 86 193
61 87 187
61 88 122
61 89 231
61 90 104
62 63 184
62 64 116
62 65 264
62 66 167
62 67 95
62 68 58
62 69 46
62 70 269
62 71 258
62 72 138
62 73 181
62 74 170
62 75 98
62 76 63
62 77 203
62 78 65
62 79 23
62 80 119
62 81 250
62 82 12
62 83 155
62 84 63
62 85 260
62 86 123
62 87 260
62 88 188
62 89 120
62 90 231
63 64 31
63 65 53
63 66 100
63 67 137
63 68 26
63 69 35
63 70 144
63 71 23
63 72 118
63 73 222
63 74 124
63 75 159
63 76 141
63 77 143
63 78 21
63 79 14
63 80 206
63 81 269
63 82 77
63 83 155
63 84 202
63 85 218
63 86 261
63 87 222
63 88 48
63 89 62
63 90 199
64 65 184
64 66 236
64 67 206
64 68 188
64 69 112
64 70 128
64 71 191
64 72 87
64 73 237
64 74 63
64 75 54
64 76 194
64 77 3
64 78 249
64 79 258
64 80 84
64 81 246
64 82 169
64 83 98
64 84 228
64 85 133
64 86 119
64 87 104
64 88 192
64 89 151
64 90 13
65 66 14
65 67 252
65 68 114
65 69 200
65 70 263
65 71 94
65 72 220
65 73 153
65 74 132
65 75 38
65 76 244
65 77 8
65 78 240
65 79 91
65 80 59
65 81 43
65 82 124
65 83 239
65 84 97
65 85 78
65 86 76
65 87 118
65 88 113
65 89 226
65 90 52
66 67 163
66 68 122
66 69 161
66 70 226
66 71 16
66 72 178
66 73 260
66 74 113
66 75 32
66 76 232
66 77 28
66 78 166
66 79 118
66 80 201
66 81 14
66 82 0
66 83 42
66 84 262
66 85 124
66 86 194
66 87 43
66 88 224
66 89 77
66 90 5
67 68 68
67 69 31
67 70 5
67 71 213
67 72 24
67 73 161
67 74 196
67 75 259
67 76 77
67 77 154
67 78 68
67 79 6
67 80 44
67 81 112
67 82 129
67 83 38
67 84 135
67 85 172
67 86 70
67 87 59
67 88 225
67 89 214
67 90 74
68 69 47
68 70 61
68 71 180
68 72 161
68 73 127
68 74 241
68 75 40
68 76 265
68 77 265
68 78 207
68 79 231
68 80 98
68 81 253
68 82 27
68 83 166
68 84 188
68 85 267
68 86 69
68 87 190
68 88 122
68 89 268
68 90 106
69 70 149
69 71 131
69 72 162
69 73 214
69 74 8
69 75 149
69 76 162
69 77 195
69 78 228
69 79 19
69 80 140
69 81 155
69 82 177
69 83 28
69 84 13
69 85 130
69 86 157
69 87 8
69 88 124
69 89 44
69 90 197
70 71 150
70 72 50
70 73 152
70 74 40
70 75 183
70 76 35
70 77 117
70 78 216
70 79 174
70 80 141
70 81 76
70 82 6
70 83 93
70 84 269
70 85 221
70 86 91
70 87 78
70 88 99
70 89 248
70 90 19
71 72 48
71 73 232
71 74 190
71 75 238
71 76 128
71 77 241
71 78 211
71 79 95
71 80 22
71 81 43
71 82 225
71 83 253
71 84 94
71 85 141
71 86 167
71 87 201
71 88 49
71 89 83
71 90 228
72 73 82
72 74 178
72 75 167
72 76 37
72 77 83
72 78 62
72 79 183
72 80 121
72 81 5
72 82 124
72 83 2
72 84 207
72 85 58
72 86 171
72 87 39
72 88 162
72 89 85
72 90 161
73 74 200
73 75 141
73 76 215
73 77 43
73 78 145
73 79 66
73 80 55
73 81 14
73 82 95
73 83 235
73 84 147
73 85 238
73 86 206
73 87 201
73 88 17
73 89 77
73 90 182
74 75 72
74 76 54
74 77 245
74 78 187
74 79 149
74 80 140
74 81 79
74 82 78
74 83 95
74 84 187
74 85 97
74 86 116
74 87 86
74 88 234
74 89 20
74 90 174
75 76 148
75 77 231
75 78 40
75 79 92
75 80 78
75 81 155
75 82 48
75 83 253
75 84 104
75 85 264
75 86 239
75 87 167
75 88 261
75 89 93
75 90 212
76 77 62
76 78 131
76 79 118
76 80 167
76 81 103
76 82 209
76 83 79
76 84 166
76 85 70
76 86 48
76 87 148
76 88 27
76 89 157
76 90 199
77 78 75
77 79 21
77 80 80
77 81 197
77 82 33
77 83 0
77 84 80
77 85 4
77 86 95
77 87 114
77 88 44
77 89 254
77 90 189
78 79 138
78 80 123
78 81 20
78 82 17
78 83 81
78 84 87
78 85 183
78 86 229
78 87 185
78 88 137
78 89 231
78 90 203
79 80 200
79 81 0
79 82 125
79 83 224
79 84 214
79 85 188
79 86 142
79 87 120
79 88 220
79 89 52
79 90 130
80 81 218
80 82 154
80 83 164
80 84 72
80 85 22
80 86 9
80 87 259
80 88 31
80 89 137
80 90 77
81 82 93
81 83 144
81 84 81
81 85 21
81 86 79
81 87 50
81 88 226
81 89 155
81 90 261
82 83 174
82 84 257
82 85 62
82 86 71
82 87 63
82 88 65
82 89 152
82 90 127
83 84 160
83 85 168
83 86 226
83 87 146
83 88 167
83 89 136
83 90 62
84 85 169
84 86 168
84 87 144
84 88 44
84 89 39
84 90 10
85 86 57
85 87 159
85 88 237
85 89 249
85 90 85
86 87 122
86 88 1
86 89 41
86 90 155
87 88 186
87 89 135
87 90 1
88 89 163
88 90 171
89 90 262
